
Gurobi 13.0.0 (mac64[arm]) logging started Sun Dec  7 08:30:15 2025

Set parameter LogFile to value "/Users/jjung404/PyProjects/qiga/data/steiner-opt/ES10FST/es10fst14_log.txt"
Set parameter OutputFlag to value 1
Gurobi Optimizer version 13.0.0 build v13.0.0rc1 (mac64[arm] - Darwin 24.6.0 24G325)

CPU model: Apple M3
Thread count: 8 physical cores, 8 logical processors, using up to 8 threads

Optimize a model with 98 rows, 96 columns and 274 nonzeros (Min)
Model fingerprint: 0xbd5b4a28
Model has 32 linear objective coefficients
Variable types: 64 continuous, 32 integer (32 binary)
Coefficient statistics:
  Matrix range     [1e+00, 9e+00]
  Objective range  [2e+05, 3e+06]
  Bounds range     [1e+00, 1e+00]
  RHS range        [1e+00, 9e+00]
Found heuristic solution: objective 2.768605e+07
Presolve removed 23 rows and 18 columns
Presolve time: 0.00s
Presolved: 75 rows, 78 columns, 232 nonzeros
Variable types: 51 continuous, 27 integer (27 binary)

Root relaxation: objective 1.509791e+07, 50 iterations, 0.00 seconds (0.00 work units)

    Nodes    |    Current Node    |     Objective Bounds      |     Work
 Expl Unexpl |  Obj  Depth IntInf | Incumbent    BestBd   Gap | It/Node Time

     0     0 1.5098e+07    0   18 2.7686e+07 1.5098e+07  45.5%     -    0s
H    0     0                    2.566961e+07 1.5098e+07  41.2%     -    0s
H    0     0                    2.418443e+07 1.5098e+07  37.6%     -    0s
H    0     0                    2.403138e+07 1.5098e+07  37.2%     -    0s
H    0     0                    2.285700e+07 1.5098e+07  33.9%     -    0s
     0     0 1.8497e+07    0   23 2.2857e+07 1.8497e+07  19.1%     -    0s
H    0     0                    2.268511e+07 1.9298e+07  14.9%     -    0s
     0     0 1.9298e+07    0   22 2.2685e+07 1.9298e+07  14.9%     -    0s
     0     0 1.9298e+07    0   22 2.2685e+07 1.9298e+07  14.9%     -    0s
     0     0 1.9685e+07    0   20 2.2685e+07 1.9685e+07  13.2%     -    0s
     0     0 2.0044e+07    0   20 2.2685e+07 2.0044e+07  11.6%     -    0s
     0     0 2.0044e+07    0   20 2.2685e+07 2.0044e+07  11.6%     -    0s
H    0     0                    2.253207e+07 2.0468e+07  9.16%     -    0s
     0     0 2.0468e+07    0   13 2.2532e+07 2.0468e+07  9.16%     -    0s
     0     0 2.0578e+07    0   12 2.2532e+07 2.0578e+07  8.67%     -    0s
     0     0 2.0587e+07    0   14 2.2532e+07 2.0587e+07  8.63%     -    0s
     0     0 2.0589e+07    0   17 2.2532e+07 2.0589e+07  8.62%     -    0s
H    0     0                    2.198643e+07 2.0592e+07  6.34%     -    0s
     0     0 2.0592e+07    0   17 2.1986e+07 2.0592e+07  6.34%     -    0s
     0     0 2.0592e+07    0   17 2.1986e+07 2.0592e+07  6.34%     -    0s
     0     0 2.0751e+07    0   17 2.1986e+07 2.0751e+07  5.62%     -    0s
     0     0 2.0781e+07    0   18 2.1986e+07 2.0781e+07  5.48%     -    0s
     0     0 2.0781e+07    0   18 2.1986e+07 2.0781e+07  5.48%     -    0s
     0     0 2.0814e+07    0   19 2.1986e+07 2.0814e+07  5.33%     -    0s
     0     0 2.0898e+07    0   19 2.1986e+07 2.0898e+07  4.95%     -    0s
     0     0 2.0918e+07    0   18 2.1986e+07 2.0918e+07  4.86%     -    0s
     0     0 2.0918e+07    0   18 2.1986e+07 2.0918e+07  4.86%     -    0s
     0     0 2.0918e+07    0   17 2.1986e+07 2.0918e+07  4.86%     -    0s
     0     2 2.0918e+07    0   15 2.1986e+07 2.0918e+07  4.86%     -    0s
*   25    25               7    2.189335e+07 2.1195e+07  3.19%  14.6    0s
*   79    25               7    2.185613e+07 2.1205e+07  2.98%   9.1    0s

Cutting planes:
  Learned: 1
  Gomory: 6
  Cover: 8
  Implied bound: 4
  MIR: 28
  Flow cover: 42
  Flow path: 16
  Inf proof: 1
  Network: 19
  RLT: 1
  Relax-and-lift: 2

Explored 138 nodes (1305 simplex iterations) in 0.03 seconds (0.02 work units)
Thread count was 8 (of 8 available processors)

Solution count 10: 2.18561e+07 2.18933e+07 2.19864e+07 ... 2.76861e+07

Optimal solution found (tolerance 1.00e-04)
Best objective 2.185612800000e+07, best bound 2.185612800000e+07, gap 0.0000%
